Route #1: 49 58 5 51 53 19 40 37 11 7 22 54 29 23 56 18 38 52 36 63 24
Route #2: 8 26 55 9 60 46 62 6 25 47 39 48 44 2 32
Route #3: 12 45 17 21 57 50
Route #4: 28 4 42 10 43 20 31 14 61 30 3 35
Route #5: 34 13 33 15 41 59 27 1
Route #6: 16
Route #7: 
Route #8: 
Route #9: 
cost 2108.6672230493086
